NAME : knights-tour
COMMENT : Hamiltonian cycle problem (Erbacci) 
TYPE : HCP
DIMENSION : 48
EDGE_DATA_FORMAT : EDGE_LIST
EDGE_DATA_SECTION
	48  30 
  48  15 
  47  29 
  47  14 
  47  16 
  46  28 
  46  32 
  46  13 
  46  15 
  45  27 
  45  31 
  45  12 
  45  14 
  44  26 
  44  30 
  44  11 
  44  13 
  43  25 
  43  29 
  43  10 
  43  12 
  42  24 
  42  28 
  42  9 
  42  11 
  41  23 
  41  27 
  41  8 
  41  10 
  40  22 
  40  26 
  40  7 
  40  9 
  39  21 
  39  25 
  39  6 
  39  8 
  38  20 
  38  24 
  38  5 
  38  7 
  37  19 
  37  23 
  37  4 
  37  6 
  36  18 
  36  22 
  36  3 
  36  5 
  35  17 
  35  21 
  35  2 
  35  4 
  34  20 
  34  1 
  34  3 
  33  19 
  33  2 
  32  14 
  31  13 
  30  12 
  30  16 
  29  11 
  29  15 
  28  10 
  28  14 
  27  9 
  27  13 
  26  8 
  26  12 
  25  7 
  25  11 
  24  6 
  24  10 
  23  5 
  23  9 
  22  4 
  22  8 
  21  3 
  21  7 
  20  2 
  20  6 
  19  1 
  19  5 
  18  4 
  17  3 
-1
EOF
